
%mem=16GB
%nprocshared=16
#opt=(ts,calcfc,noeigen,maxstep=10) scrf=(solvent=tetrahydrofuran) nosymm UM062X def2SVP guess=(mix,always) fre