$molecule
2 5
C          2.67360        1.05648        0.22504
C          0.78309        1.87331        1.29239
C          3.38815        2.21555        0.49357
C          1.41807        3.06817        1.60378
C          2.74207        3.23194        1.19794
H          4.41303        2.31799        0.15488
H          0.88621        3.84454        2.14213
H          3.26831        4.15312        1.42390
C          3.14877       -0.12015       -0.52403
N          2.36299       -1.12275       -0.70580
C          4.49740       -1.44929       -1.68977
C          3.10765       -2.10991       -1.50610
H          4.75552       -1.23895       -2.72691
N          1.41020        0.89744        0.62999
H          5.31278       -1.98094       -1.20019
C         -0.61257        1.51115        1.60036
N         -1.07384        0.37682        1.21455
C         -2.69003        1.66063        2.37317
C         -2.48083        0.31196        1.64094
H         -2.89859        1.56012        3.43787
O         -1.39213        2.33237        2.25481
O          4.36158       -0.15841       -1.01198
H         -3.42776        2.30987        1.90345
O          0.80403       -1.68051        1.74560
C          2.04389       -1.92341        2.43070
Fe         0.37378       -0.76852        0.08871
H         -2.62875       -0.55422        2.28937
H         -3.12220        0.20737        0.76295
H          3.16093       -3.06229       -0.97315
H          2.59626       -2.27283       -2.45819
O         -0.12439        0.18581       -1.44700
C         -1.34508        0.06319       -1.83936
C         -1.48686       -3.06351        0.25056
O         -1.46259       -2.95934        1.47006
C         -1.87838        1.15850       -2.73133
H         -1.12308        1.46560       -3.45406
H         -2.79902        0.84847       -3.22111
O         -2.24131       -3.86398       -0.44743
C         -3.13862       -4.73476        0.28830
H         -3.67398       -5.29316       -0.47489
H         -2.55553       -5.39816        0.92812
H         -3.82033       -4.13016        0.88696
Br        -2.27675        2.68702       -1.59840
O         -2.09908       -0.86513       -1.49882
N         -0.63972       -2.28836       -0.55558
H         -0.58434       -2.63560       -1.51255
H          0.07741       -2.31201        1.96812
H          2.62807       -1.00585        2.38198
H          1.82425       -2.15806        3.47285
H          2.58190       -2.74731        1.95833 
$end


$rem
BASIS  =  6-31G*
JOB_TYPE  = force
METHOD = wB97X-D
max_scf_cycles = 200
unrestricted  =  true
mem_total = 32000
$end





