$molecule
0 1
C        -2.6383117007    1.6486307167   -0.1253923407
C        -0.8514664611    2.9913867087   -0.1273207503
C        -2.0281776446    3.8355230617   -0.1178487419
C        -3.1215053880    3.0142004716   -0.1162614013
H        -2.0133347387    4.9178264050   -0.0922156225
H        -4.1646809003    3.3026542299   -0.0892763532
C         0.4835263586    3.4157128062   -0.0078506625
C         3.0140405609    3.1214643533    0.1045494071
C         1.6486255436    2.6382136767    0.1121520154
C         2.9914108008    0.8513619736    0.1141335959
C        -3.4158336163    0.4836109594   -0.0052398965
C        -2.9914038133   -0.8513401482    0.1141568585
C        -3.8355115441   -2.0282376667    0.1050696081
C        -1.6486185882   -2.6381916086    0.1121618285
C        -3.0140338254   -3.1214423718    0.1045600904
H        -4.9178196729   -2.0135608592    0.0796695456
H        -3.3023795969   -4.1646822117    0.0786657807
C        -0.4835192781   -3.4156893423   -0.0078511908
C         0.8514726753   -2.9913631269   -0.1273318550
C         2.0281837905   -3.8354998259   -0.1178604657
C         2.6383189369   -1.6486082575   -0.1254171622
C         3.1215123166   -3.0141780197   -0.1163061496
H         2.0133408859   -4.9178030496   -0.0922208003
H         4.1646881620   -3.3026324295   -0.0893408646
C         3.4158412185   -0.4835881272   -0.0052694422
N        -1.2729180870    1.6918159412   -0.1920917254
N        -1.6917715852   -1.2727933886    0.1782051288
N         1.2729251043   -1.6917922150   -0.1921042666
C         3.8355181064    2.0282596560    0.1050372604
H         4.9178259567    2.0135828691    0.0796248654
N         1.6917782829    1.2728149382    0.1781905301
H         3.3023859437    4.1647044165    0.0786607317
Mo        0.0000032693    0.0000106625   -0.0072436912
O        -0.4130863689    0.5435866520    1.8419000811
H         4.4915532830   -0.6353859869   -0.0052001573
H         0.6353680056    4.4914266298   -0.0074023230
H        -4.4915454289    0.6354105536   -0.0051571413
H        -0.6353600495   -4.4914033380   -0.0074027252
O         0.4130997383   -0.5435736173    1.8418962083
O        -0.5435904822   -0.4131441530   -1.8562807178
O         0.5435738302    0.4131630618   -1.8562920885
$end

$rem
jobtype opt
max_scf_cycles 500
sym_ignore true
method b3lyp
unrestricted false
ecp_fit true
basis gen
ecp gen
geom_opt_max_cycles 500
mem_total 8000
$end

$ecp
Mo
LANL2DZ
****
$end

$basis
C
6-31G(d)
****
O
6-31G(d)
****
H
6-31G(d)
****
N
6-31G(d)
****
Mo
LANL2DZ
****
$end
