$rem
job_type = opt
gen_scfman      true
exchange        b3lyp
basis           6-31+g**
scf_convergence 9
max_scf_cycles            200
thresh                    14
unrestricted    true
scf_guess       SAD
SCF_ALGORITHM = diis
sym_ignore      true
xc_grid         3
MEM_TOTAL 8000
$end

$molecule
-1 1
 H  -1.369377566236595  0.5061699349613556  0.9185181170706829 
 H  -1.369377566236595  0.5061699349613556  -0.9185181170706828 
 C  -0.1733838907911015  -0.9916919740067968  0.0 
 C  -0.8611071563771758  0.22839146385159514  0.0 
 O  0.43696556408723886  1.9996680113164136  0.0 
 N  0.46686100914477185  -1.987207547631995  0.0 
$end


$opt2
r12 4 5 1.25 1000.0
$end
