%chk=/home/zxwei/cal/chk/trans.chk
%mem=16GB
%nprocshared=16
#opt=(ts,calcfc,noeigen,maxstep=10)	scrf=(solvent=tetrahydrofuran)	nosymm	UM062X	def2SVP	guess=(mix,always)	fre

Title Card Required

0 1
C          -0.62179900     -0.17582100     -0.73148300
C          -0.51485100     -2.32264400     -1.97096300
C           0.61234600     -2.62376200     -0.98480800
C           1.52896800     -1.41344800     -0.81719700
C          -1.63817800      0.60501400     -0.19612900
C          -2.83306100     -0.02225500     -0.63492700
H          -1.22610600     -3.14446900     -2.05781500
H           0.17234900     -2.90966300     -0.02334500
H           2.17393700     -1.54164800      0.05439200
H          -1.55234000      1.47216200      0.43718300
H          -0.12244800     -2.08546600     -2.96652400
H           1.21534900     -3.46460400     -1.33832500
H           2.17744800     -1.30442400     -1.69222300
N          -2.58015700     -1.12301000     -1.36904700
C          -4.16484300      0.38848900     -0.36192000
C          -5.29416500      0.75413600     -0.11671400
C          -6.67232700      1.19114400      0.19047400
C          -6.67273600      2.17091200      1.37225000
H          -6.20986400      1.72280200      2.25593100
H          -6.10623600      3.06413900      1.09648300
H          -7.70269700      2.45393000      1.60550600
O          -7.25220700      1.86206900     -0.92425600
H          -7.74130500      1.17570700     -1.41971200
C          -7.50773400     -0.05279300      0.48468600
S          -7.37278000     -1.01164200      1.93865300
C          -8.97375700     -1.66028300      0.06409600
C          -8.57312800     -2.09079800      1.29423400
H          -9.71562400     -2.14708700     -0.55706500
H          -8.90772400     -2.95320700      1.85327300
N          -8.36288200     -0.50745800     -0.38651200
C           1.48917800      1.02758400     -0.52696400
N           2.80414800      0.86566800     -0.30700800
C           0.92159000      2.31118400     -0.64220800
C           3.54479700      1.97266800     -0.17234200
C           1.79622200      3.37625800     -0.48511900
H          -0.11881100      2.47452800     -0.87643100
N           3.10451500      3.24852400     -0.23783900
H           1.42379800      4.39557100     -0.56752600
N           0.76792800     -0.14730200     -0.65782000
N           4.89229500      1.86479100      0.06200900
H           5.32837600      2.76940700      0.18375000
C           5.73721500      0.75264300      0.20375900
C           7.05716100      1.03696100      0.63821500
C           5.35510000     -0.56658600     -0.07790900
C           7.92430400     -0.02412900      0.76494700
H           7.37088400      2.05047000      0.86532400
C           6.26421600     -1.63120500      0.06977000
H           4.34952000     -0.76135600     -0.41446400
C           7.54268200     -1.33570500      0.49005300
H           5.96046700     -2.65013900     -0.14404400
C           9.72681400     -1.33209600      0.96942300
H          10.37123500     -1.33130500      0.08096200
H          10.26876500     -1.66886600      1.85466500
O           8.59810300     -2.18697700      0.74449700
O           9.22896700     -0.00157500      1.19409400
N          -1.23263100     -1.17709300     -1.43270600
