%chk=/home/zxwei/cal/chk/trans.chk
%mem=16GB
%nprocshared=16
#opt=(ts,calcfc,noeigen,maxstep=10)	scrf=(solvent=tetrahydrofuran)	nosymm	UM062X	def2SVP	guess=(mix,always)	fre

Title Card Required

0 1
C          -2.94197500      1.00659000     -0.46169000
C          -1.56973200      0.72510000     -0.58784400
C          -0.62048400      1.72455700     -0.38912500
C          -1.03096200      3.04727800     -0.08111800
C          -2.39988100      3.32204000      0.00658700
C          -3.34835300      2.31926700     -0.17152000
H          -1.25684300     -0.26869600     -0.88392900
H          -2.72944700      4.32878100      0.23663600
H          -4.40520600      2.54631600     -0.08222300
C          -0.40467200      5.41911500     -0.19526500
C           0.75632600      3.93924400      1.31994900
C           0.86238300      6.26432300     -0.27524500
H          -1.05561600      5.82533400      0.59703200
H          -0.94622000      5.46701000     -1.14459900
C           1.98268900      4.83611000      1.20944400
H           0.13965100      4.25530700      2.17713600
H           1.06461400      2.90485700      1.48599900
H           0.60975900      7.31846100     -0.41626300
H           1.47511800      5.92590000     -1.12536900
H           2.53230300      4.84950500      2.15432100
H           2.64704500      4.45556300      0.41709000
N          -0.02504300      4.03027800      0.07031000
O           1.61522200      6.18367800      0.93131200
N           0.75158000      1.51289000     -0.58622700
H           1.26469700      2.33252100     -0.89766100
C           1.53037900      0.44916100     -0.22432600
N           2.81677500      0.54524400     -0.59806100
C           1.06348500     -0.66208700      0.51401100
C           3.62602900     -0.46877100     -0.25380900
C           2.00124700     -1.63345300      0.80200700
H           0.04406500     -0.74176900      0.86262400
N           3.29134700     -1.57445600      0.42481200
H           1.71527900     -2.51419300      1.37267100
N           4.92986600     -0.29433200     -0.67356500
H           5.09218000      0.56687900     -1.18108500
C           6.06885800     -1.07265700     -0.52156300
C           6.09550600     -2.30943100      0.14805900
N           7.15847600     -0.51906700     -1.08553700
C           7.31887100     -2.95862200      0.21153600
H           5.19492700     -2.71410400      0.58372700
C           8.31342800     -1.18456800     -0.99784300
C           8.46667000     -2.41414800     -0.36099300
H           9.17301800     -0.70854600     -1.46448300
H           9.42533300     -2.91527600     -0.31589700
Cl          7.41519100     -4.50721300      1.03669600
C          -3.90386400     -0.02701700     -0.66413900
C          -4.71606900     -0.90987400     -0.83860400
C          -5.71542500     -1.96005700     -1.07575600
C          -5.03885100     -3.29580200     -1.42160800
H          -4.40286000     -3.16665900     -2.30122200
H          -4.43328100     -3.63510100     -0.57859600
H          -5.80845800     -4.04284300     -1.63629800
O          -6.54722200     -1.63538200     -2.19846700
H          -6.81599400     -0.70523500     -2.10727500
C          -6.58799200     -2.13634600      0.16265100
S          -8.32783200     -2.26507500     -0.01158200
C          -7.19183300     -2.47069300      2.26043600
C          -8.43820400     -2.50140800      1.70431300
H          -6.97832400     -2.59098700      3.31617500
H          -9.39202900     -2.64040100      2.19363400
N          -6.14815500     -2.26373800      1.38045300
