%chk=/home/zxwei/cal/chk/trans.chk
%mem=16GB
%nprocshared=16
#opt=(ts,calcfc,noeigen,maxstep=10)	scrf=(solvent=tetrahydrofuran)	nosymm	UM062X	def2SVP	guess=(mix,always)	fre

Title Card Required

0 1
C          -0.10715200     -0.34040300     -1.18909200
C           0.00537500      1.83427300     -2.45169800
C          -1.48913200      1.61887900     -2.67076500
C          -2.13066900      0.99030600     -1.43443100
C           0.84699000     -1.14883800     -0.57959100
C           2.08631600     -0.56635600     -0.93496700
H           0.18418600      2.65528800     -1.75056200
H          -1.96277600      2.58243900     -2.87836700
H          -2.00984400      1.64124000     -0.56214000
H           0.68867900     -2.00532900      0.05349500
H           0.53004700      2.04455000     -3.38636200
H          -1.65643300      0.96864900     -3.53627800
H          -3.19078500      0.80845500     -1.59136100
N           1.91315700      0.51843200     -1.71071200
C           3.37859300     -0.97061200     -0.51195400
C           4.46504600     -1.31105100     -0.09801300
C           5.75904900     -1.66281600      0.52095500
C           6.36464100     -2.90627000     -0.14125300
H           5.67491500     -3.74286200     -0.01093000
H           6.52570000     -2.75100200     -1.21139800
H           7.31582900     -3.15001400      0.34019900
O           5.57960300     -1.98250200      1.89287400
C           6.67651100     -0.43890700      0.37982100
S           7.95923500     -0.32314600     -0.80095400
C           7.46716000      1.60403400      0.78400000
C           8.31568700      1.27471300     -0.23161100
H           7.46763800      2.54175100      1.32524000
H           9.11440500      1.86061600     -0.66341700
N           6.54642900      0.63476200      1.11525600
C          -2.26334400     -1.42084400     -0.83149600
N          -3.52245100     -1.16015500     -0.44756900
C          -1.78387100     -2.74110300     -0.91399400
C          -4.29913800     -2.20598000     -0.13952500
C          -2.68375000     -3.73660100     -0.55952400
H          -0.79484800     -2.98260600     -1.27334300
N          -3.93933200     -3.50894700     -0.16061200
H          -2.38028900     -4.78056100     -0.60862500
N          -1.49572100     -0.31572700     -1.16350900
N          -5.59811600     -1.99659700      0.24669400
H          -6.08846600     -2.86528100      0.41528300
C          -6.35869300     -0.82458000      0.38923400
C          -7.74986100     -1.01745600      0.58671400
C          -5.82108400      0.47019200      0.36497300
C          -8.52856200      0.10606900      0.74564800
H          -8.18401100     -2.01153100      0.60849000
C          -6.64569800      1.59949500      0.52744600
H          -4.75997400      0.59718600      0.21962100
C          -7.99506400      1.39295800      0.71456800
H          -6.22339500      2.59824900      0.51098000
C         -10.21891300      1.56487400      0.86587300
H         -10.70898700      1.74305900     -0.09994100
H         -10.86490300      1.84614900      1.69906000
O          -8.99850400      2.31425000      0.93192300
O          -9.88132500      0.17094000      0.97498600
N           0.57446600      0.62449500     -1.87155600
H           5.04173700     -1.25869100      2.29989300
O           3.46388700      2.90692700     -1.55170200
H           2.93154700      2.09322600     -1.69860500
C           4.60883600      2.50301300     -0.81731700
H           5.19355300      1.73341100     -1.34251700
H           5.24764400      3.38121100     -0.68004500
H           4.35317300      2.10655300      0.17518300
H           5.04756100      0.68609000      2.19452400
O           4.33895100      0.32063000      2.77920400
C           4.68760900      0.65632200      4.12241000
H           4.62426700      1.73879600      4.29282700
H           3.97505600      0.15606300      4.78289800
H           5.70086900      0.31712800      4.37590300
H          -0.25398100      1.29903500      1.41127600
O           0.11217300      1.99348900      0.84382600
C           1.47023300      2.20244100      1.23736500
H           1.53784800      2.80615200      2.15452200
H           2.00418200      1.25947400      1.40181800
H           1.96211400      2.73520900      0.42046600
