%chk=/home/zxwei/cal/chk/trans.chk
%mem=16GB
%nprocshared=16
#opt=(ts,calcfc,noeigen,maxstep=10)	scrf=(solvent=tetrahydrofuran)	nosymm	UM062X	def2SVP	guess=(mix,always)	fre

Title Card Required

0 1
C          -3.42769700      1.33080300      0.18141100
C          -2.06415500      1.02462000      0.34301500
C          -1.09859700      2.02443200      0.25788200
C          -1.48506000      3.37055300      0.02967200
C          -2.84638300      3.66819400     -0.08805400
C          -3.81082900      2.66627300     -0.02189600
H          -1.77470100      0.00733300      0.57558100
H          -3.15699600      4.69322300     -0.25553700
H          -4.86109500      2.91190100     -0.13622100
C           0.34219900      4.32858400     -1.26265800
C          -0.82723400      5.71931000      0.32850600
C           1.57765200      5.19911500     -1.07216900
H          -0.25489800      4.70906500     -2.10746600
H           0.64089800      3.30317200     -1.49121500
C           0.44972200      6.53855600      0.48799300
H          -1.45688100      6.18793200     -0.44635500
H          -1.38667900      5.71051500      1.26861300
H           2.14298900      5.26938300     -2.00520100
H           2.22418000      4.75646900     -0.29757900
H           0.20890800      7.58418700      0.69678300
H           1.04230800      6.13355900      1.32309800
N          -0.46065100      4.34616600     -0.02351900
O           1.22239200      6.52950700     -0.70855400
N           0.26269900      1.78744100      0.49130100
H           0.76940000      2.58336500      0.86818100
C           1.04309000      0.72449600      0.13179200
N           2.30730000      0.78348500      0.58170000
C           0.60361900     -0.34873900     -0.67658400
C           3.11977500     -0.23012600      0.24455200
C           1.54183700     -1.32443100     -0.94843000
H          -0.39419300     -0.39708100     -1.08772300
N           2.80836500     -1.30309100     -0.49509900
H           1.27617600     -2.17709000     -1.56935600
N           4.39928200     -0.09465000      0.74559400
H           4.54449200      0.74361500      1.29500400
C           5.53392200     -0.88502500      0.62759700
C           5.58092600     -2.09595600     -0.08660500
N           6.59760900     -0.37077000      1.27252600
C           6.79674500     -2.76192400     -0.10668500
H           4.70075900     -2.46914600     -0.58732300
C           7.74624500     -1.05099700      1.22382700
C           7.91798200     -2.25794700      0.54947900
H           8.58470300     -0.60687900      1.75579700
H           8.87063100     -2.77227900      0.53856400
Cl          6.91776700     -4.27977500     -0.98413900
C          -4.39784900      0.28699000      0.24633600
C          -5.20299300     -0.61856000      0.29520500
C          -6.16351600     -1.74100900      0.32760100
C          -7.20303400     -1.59541900     -0.79285300
H          -7.77804200     -0.68020200     -0.62954500
H          -6.72027600     -1.53440800     -1.77224400
H          -7.87855000     -2.45497600     -0.77323700
O          -6.86867200     -1.77405200      1.56499900
H          -6.37158700     -2.39290500      2.13561600
C          -5.36656300     -3.03729700      0.19738400
S          -4.55659300     -3.55342300     -1.26202700
C          -4.40227200     -4.90778400      0.89195300
C          -3.96012200     -4.93832800     -0.39733000
H          -4.18004100     -5.65243800      1.64646400
H          -3.34023300     -5.67769000     -0.88444200
N          -5.19489700     -3.82595900      1.21968900
