%chk=/home/zxwei/cal/chk/trans.chk
%mem=16GB
%nprocshared=16
#opt=(ts,calcfc,noeigen,maxstep=10)	scrf=(solvent=tetrahydrofuran)	nosymm	UM062X	def2SVP	guess=(mix,always)	fre

Title Card Required

0 1
C          -2.96379800      0.71890900     -0.41363800
C          -1.60519800      0.47809900     -0.13928700
C          -0.70652900      1.53657500     -0.03158500
C          -1.15831600      2.87356200     -0.18215500
C          -2.51764100      3.10120300     -0.42035700
C          -3.41384200      2.04337700     -0.54127100
H          -1.27181100     -0.53758700      0.03454300
H          -2.87783700      4.11772800     -0.53004100
H          -4.46223800      2.23655700     -0.74106500
C           0.73926100      4.05965500     -1.15324900
C          -0.70387800      5.21659100      0.40090400
C           1.88285800      4.97000200     -0.72444800
H           0.22536200      4.49266600     -2.02683300
H           1.12899200      3.08004200     -1.43849100
C           0.48748600      6.08253300      0.79795300
H          -1.26580900      5.72612000     -0.39974500
H          -1.37008200      5.08174800      1.25807800
H           2.55264600      5.16486500     -1.56615100
H           2.45661200      4.48497100      0.08143900
H           0.15524400      7.08740300      1.07140900
H           0.99874200      5.62670200      1.66012100
N          -0.20661100      3.90866300     -0.02957400
O           1.39975000      6.23584700     -0.28525400
N           0.63539200      1.35972500      0.33210600
H           1.04079400      2.14430700      0.83456900
C           1.52678700      0.39357500     -0.04246100
N           2.73188700      0.48985700      0.54270400
C           1.25254000     -0.61771200     -0.99112400
C           3.64918400     -0.42717100      0.19821600
C           2.28538800     -1.49538400     -1.25437900
H           0.30662000     -0.68944200     -1.50796400
N           3.49579000     -1.43614600     -0.67008900
H           2.14873500     -2.29536400     -1.97861000
N           4.85865700     -0.25900200      0.84260200
H           4.88379400      0.52559100      1.48241500
C           6.05241700     -0.96429200      0.78123800
C           6.26178800     -2.09130700     -0.03397100
N           7.00084100     -0.45588300      1.58978300
C           7.51601500     -2.67916100      0.02420900
H           5.46958700     -2.46292700     -0.66554000
C           8.19277400     -1.05866000      1.61025600
C           8.52082500     -2.17917300      0.85010400
H           8.93522600     -0.62180600      2.27444300
H           9.50245700     -2.63300400      0.90113800
Cl          7.83788600     -4.09054000     -0.97211600
C          -3.87496300     -0.37266900     -0.52240900
C          -4.65290900     -1.29910300     -0.60922400
C          -5.59477800     -2.42584600     -0.72078000
C          -4.85564000     -3.76768700     -0.60938600
H          -4.36880800     -3.85686100      0.36414200
H          -5.57497700     -4.58245600     -0.72801000
H          -4.09915600     -3.83453300     -1.39670400
O          -6.32639600     -2.34800800     -1.95331400
H          -5.68458800     -2.16454400     -2.65911300
C          -6.64163300     -2.29701800      0.37252100
S          -8.17541500     -1.51328300      0.04533000
C          -7.58090700     -2.37107200      2.37043900
C          -8.59621400     -1.73768600      1.71365000
H          -7.59008700     -2.64009700      3.42014400
H          -9.55188300     -1.41456500      2.10203600
N          -6.47570800     -2.68255100      1.60453100
