%chk=/home/zxwei/cal/chk/trans.chk
%mem=16GB
%nprocshared=16
#opt=(ts,calcfc,noeigen,maxstep=10)	scrf=(solvent=tetrahydrofuran)	nosymm	UM062X	def2SVP	guess=(mix,always)	fre

Title Card Required

0 1
C          -0.83797500      1.60584400     -0.51107900
C          -1.36135900      4.07529500     -0.48634000
C          -2.75189300      3.62953100     -0.93083700
C          -3.14686800      2.32318200     -0.24211500
C           0.32901100      0.86642700     -0.36110600
C           1.35407500      1.84138500     -0.26484700
H          -1.38681500      4.48247600      0.53062100
H          -3.47604600      4.41001700     -0.68161900
H          -3.16612900      2.44476900      0.84826000
H           0.44008300     -0.20314100     -0.30458800
H          -0.94488200      4.83661500     -1.14946600
H          -2.77473900      3.48364800     -2.01614800
H          -4.13065500      1.99039400     -0.56319400
N           0.86561200      3.09139300     -0.33473000
C           2.74220300      1.58882100     -0.09977200
C           3.91278600      1.31836900      0.05246200
C           5.30838900      0.91366800      0.28820800
C           5.61711800      0.95119300      1.79797500
H           5.47704100      1.97520400      2.15242600
H           4.95650100      0.28117500      2.35251100
H           6.65419000      0.65486900      1.97370600
O           6.15097100      1.79054600     -0.44516500
C           5.46060800     -0.49983500     -0.27474900
S           5.96023600     -0.71374800     -1.93038200
C           5.38743900     -2.71709600     -0.46223900
C           5.78773100     -2.42819200     -1.73320800
H           5.21522800     -3.70800000     -0.06155800
H           6.00558900     -3.11295600     -2.54044300
N           5.20932600     -1.61756200      0.35945200
C          -2.62425100      0.01315000     -0.99978900
N          -3.89339600     -0.28432300     -0.67918500
C          -1.82125000     -0.89332100     -1.71621500
C          -4.35912400     -1.47933400     -1.06167700
C          -2.41842800     -2.10128200     -2.04894500
H          -0.81804700     -0.65834200     -2.03762400
N          -3.67433200     -2.43257500     -1.73270300
H          -1.85638100     -2.84359100     -2.61243600
N          -2.18382300      1.26695300     -0.60589600
N          -5.65206900     -1.83068200     -0.76931900
H          -5.89255000     -2.73792400     -1.14677700
C          -6.68470100     -1.14898600     -0.10521800
C          -7.96850700     -1.74506500     -0.19470100
C          -6.50367700      0.03304700      0.62693300
C          -9.00551300     -1.11544800      0.45493100
H          -8.12774300     -2.66017100     -0.75535600
C          -7.58636200      0.65430900      1.27785500
H          -5.51862200      0.46766300      0.68965700
C          -8.82686800      0.06327100      1.17627500
H          -7.43947200      1.56671200      1.84538300
C         -11.01079600     -0.41455300      1.15307100
H         -11.57006200      0.13706900      0.38647500
H         -11.67257900     -0.79769900      1.93143300
O         -10.02585200      0.44469700      1.74196100
O         -10.31785900     -1.51284500      0.53460800
N          -0.46698300      2.92311500     -0.49979400
H           7.08411600      1.49978600     -0.25486800
O           8.60919800      0.78630700      0.11090600
H           8.43308300     -0.08384600      0.54754900
C           9.38464400      1.57411400      1.01494100
H           9.59827800      2.52496900      0.52094500
H           8.84530200      1.77757400      1.94955200
H          10.33401400      1.07982200      1.25445800
H           7.09664800     -1.69010000      1.38104800
O           8.05732400     -1.53657300      1.43544800
C           8.72430700     -2.67678200      0.87811700
H           8.42599900     -2.84964200     -0.16194100
H           9.79460400     -2.46455900      0.91434200
H           8.51830500     -3.57718300      1.46793500
H           4.20557500     -1.74107700      1.98315500
O           3.60035700     -1.70729000      2.75504400
C           2.30886700     -1.40318600      2.24572800
H           2.27694300     -0.42413800      1.74936800
H           1.95286800     -2.16203500      1.53187900
H           1.61548100     -1.38250900      3.09227000
