%chk=/home/zxwei/cal/chk/trans.chk
%mem=16GB
%nprocshared=16
#opt=(ts,calcfc,noeigen,maxstep=10)	scrf=(solvent=tetrahydrofuran)	nosymm	UM062X	def2SVP	guess=(mix,always)	fre

Title Card Required

0 1
C           2.92994300      0.53377600      0.09574900
C           1.55244900      0.34274700      0.30697900
C           0.67118900      1.41933100      0.24640200
C           1.15846500      2.72747900     -0.00661000
C           2.53504100      2.91119300     -0.17131300
C           3.41425000      1.83274500     -0.13010900
H           1.18593300     -0.64508000      0.55781300
H           2.92360200      3.90614000     -0.35646800
H           4.47689500      1.98968900     -0.28091200
C           0.70631200      5.12562000      0.28134300
C          -0.62982100      3.81810200     -1.24722800
C          -0.49231000      6.05029100      0.47283200
H           1.34432400      5.53100100     -0.52184200
H           1.29684900      5.08177400      1.20125900
C          -1.78247600      4.78844900     -1.02454800
H          -0.03466900      4.13879700     -2.11784600
H          -1.01927800      2.81849100     -1.45160300
H          -0.15810700      7.07491500      0.65576000
H          -1.08514700      5.70787500      1.33540800
H          -2.37553200      4.89309200     -1.93689600
H          -2.43243600      4.40870700     -0.21989200
N           0.21584700      3.78323600     -0.03748400
O          -1.30684600      6.08969300     -0.69470800
N          -0.69676700      1.29606200      0.52882200
H          -1.12150700      2.13507200      0.91368600
C          -1.58385200      0.32742400      0.14921000
N          -2.83468300      0.50808700      0.60394300
C          -1.25795300     -0.76945100     -0.68051300
C          -3.74853000     -0.40789600      0.24769800
C          -2.29316400     -1.63567600     -0.97101900
H          -0.26997800     -0.91408300     -1.09285100
N          -3.55084800     -1.49123300     -0.51558600
H          -2.11788700     -2.49842600     -1.60984400
N          -5.00722400     -0.14975600      0.75340100
H          -5.06511900      0.68883500      1.31819300
C          -6.21749800     -0.81630100      0.62245000
C          -6.38839900     -2.00418900     -0.11123400
N          -7.22313000     -0.20564900      1.27642200
C          -7.66610700     -2.54133100     -0.14048000
H          -5.55106500     -2.45757800     -0.61903600
C          -8.43563400     -0.76321700      1.21789800
C          -8.73002300     -1.93534800      0.52472800
H          -9.22446800     -0.24369000      1.75743000
H          -9.73046100     -2.34880800      0.50647400
Cl         -7.94169300     -4.02461400     -1.04184800
C           3.82182700     -0.57892600      0.13942300
C           4.58155500     -1.52368900      0.16776300
C           5.51155900     -2.67175800      0.20925900
C           5.41319200     -3.39910600      1.55784300
H           4.40255600     -3.79873500      1.67519800
H           6.13218600     -4.22269900      1.57810200
H           5.61773800     -2.71761900      2.38839300
O           5.19501500     -3.61528600     -0.81028100
H           5.76147700     -3.38064200     -1.57175300
C           6.92136600     -2.14561700     -0.04947100
S           7.84383400     -1.19439600      1.08867200
C           8.75487700     -1.74448700     -1.22758300
C           9.11243400     -1.07711100     -0.09373100
H           9.36374900     -1.83235800     -2.11907100
H          10.02701900     -0.54160600      0.11834900
N           7.51155200     -2.34330000     -1.19378900
