%chk=/home/zxwei/cal/chk/trans.chk
%mem=16GB
%nprocshared=16
#opt=(ts,calcfc,noeigen,maxstep=10)	scrf=(solvent=tetrahydrofuran)	nosymm	UM062X	def2SVP	guess=(mix,always)	fre

Title Card Required

0 1
C           3.26629700      1.52604800      0.02812200
C           1.92598500      1.13580200      0.20339100
C           0.90549700      2.08329100      0.18646600
C           1.21214800      3.45758800      0.00818500
C           2.55158100      3.83630900     -0.12550800
C           3.57105500      2.88849400     -0.12200200
H           1.69927200      0.09474500      0.39698600
H           2.80035600      4.88344600     -0.25459900
H           4.60350600      3.19719300     -0.24509900
C           0.43546100      5.75293800      0.41785000
C          -0.69808500      4.36242400     -1.19949200
C          -0.88022000      6.49184200      0.64232100
H           1.01747400      6.28540500     -0.35304100
H           1.01964800      5.73857600      1.34269800
C          -1.97470200      5.15225500     -0.94190300
H          -0.14604700      4.81051300     -2.04166000
H          -0.94428900      3.33157200     -1.46327900
H          -0.69220600      7.54055500      0.88676100
H          -1.42561400      6.02185200      1.47547800
H          -2.56910700      5.22694800     -1.85631100
H          -2.57300900      4.64289200     -0.16957400
N           0.13533700      4.37602300      0.01948900
O          -1.68432600      6.48540500     -0.53328000
N          -0.43435700      1.76446700      0.44395100
H          -0.97074200      2.51801200      0.86446100
C          -1.17027400      0.67713600      0.06403600
N          -2.42393700      0.65823100      0.54583500
C          -0.70060700     -0.34377200     -0.79334400
C          -3.19569500     -0.38057100      0.19048800
C          -1.59829800     -1.35319800     -1.07945300
H           0.28765600     -0.32950700     -1.22943600
N          -2.85259200     -1.40952300     -0.59627500
H          -1.30813700     -2.16896100     -1.73783400
N          -4.46680000     -0.32533200      0.72684900
H          -4.63690500      0.48409000      1.31130400
C          -5.56547300     -1.16466000      0.60678600
C          -5.57458800     -2.34808000     -0.15350900
N          -6.63421700     -0.72754500      1.29850100
C          -6.75767100     -3.07070700     -0.16880400
H          -4.69169800     -2.65880300     -0.69080900
C          -7.75036700     -1.46006400      1.25227900
C          -7.88307600     -2.64715300      0.53529700
H          -8.59400100     -1.07769800      1.82264300
H          -8.81013200     -3.20631000      0.52816400
Cl         -6.83121200     -4.55788100     -1.10222800
C           4.29758600      0.54079300      0.03329700
C           5.16299600     -0.30796900      0.03823400
C           6.21152100     -1.33659900      0.01857300
C           7.29651500     -1.04534700      1.06782900
H           7.73055200     -0.05962100      0.88092900
H           6.86174100     -1.06976600      2.06923400
H           8.07902100     -1.80633500      0.99600000
O           6.88695500     -1.36236200     -1.24668300
H           6.20835000     -1.34157100     -1.94301900
C           5.59323500     -2.70398600      0.28873900
S           6.08861000     -4.08460800     -0.67202300
C           4.43203300     -4.31747400      1.25071600
C           5.05168900     -5.07870100      0.30205600
H           3.72973400     -4.69061800      1.98703900
H           4.95512500     -6.13980800      0.11974800
N           4.74427800     -2.97250200      1.23726100
