%chk=/home/zxwei/cal/chk/trans.chk
%mem=16GB
%nprocshared=16
#opt=(ts,calcfc,noeigen,maxstep=10)	scrf=(solvent=tetrahydrofuran)	nosymm	UM062X	def2SVP	guess=(mix,always)	fre

Title Card Required

0 1
C          -0.58583000      0.54289700     -0.08726500
C          -0.45116500      2.85972500     -0.96198500
C           0.78576800      2.93097300     -0.06738800
C           1.62775800      1.66222200     -0.19557200
C          -1.59550800     -0.26430400      0.42071600
C          -2.78085900      0.49151900      0.22736200
H          -0.17605100      2.76931400     -2.01909200
H           1.40885200      3.78602200     -0.34344600
H           2.18922400      1.67171800     -1.13481800
H          -1.50753600     -1.23151400      0.88679700
H          -1.10723700      3.72185000     -0.83952100
H           0.46176200      3.07516400      0.96890300
H           2.35272900      1.60393000      0.61908500
N          -2.52577600      1.68815700     -0.33680200
C          -4.10451400      0.11020100      0.57113000
C          -5.22843700     -0.23408100      0.86711600
C          -6.58895400     -0.64968100      1.24853400
C          -6.61402000     -2.13700900      1.63286300
H          -6.32332800     -2.75673600      0.78192600
H          -5.92061200     -2.31367300      2.46033100
H          -7.62660200     -2.40637700      1.94508400
O          -7.07965800      0.16302000      2.32487800
H          -6.37254000      0.22356300      2.98807800
C          -7.52915900     -0.38011900      0.08616900
S          -8.47328100      1.09549400      0.03151900
C          -8.54939800     -0.61193400     -1.85894900
C          -9.08460700      0.59539300     -1.51329500
H          -8.77029700     -1.15321500     -2.77138600
H          -9.79955600      1.19646400     -2.05743400
N          -7.66714400     -1.15751500     -0.94852700
C           1.44253100     -0.78617100     -0.33662300
N           2.78155200     -0.73609400     -0.24527500
C           0.77403400     -1.99580300     -0.60643400
C           3.45009400     -1.88636700     -0.39563500
C           1.58055700     -3.11647100     -0.73995900
H          -0.29440600     -2.05861800     -0.74223800
N           2.91342000     -3.10420700     -0.62976800
H           1.12852400     -4.08313300     -0.95376700
N           0.79825700      0.42938200     -0.17821500
N           4.81936300     -1.89519500     -0.31016900
H           5.19711100     -2.82773000     -0.41584600
C           5.75876000     -0.87460900     -0.09529000
C           7.10681400     -1.29906500      0.02697700
C           5.43801100      0.48801300     -0.01701000
C           8.06170900     -0.32721300      0.22048000
H           7.37587800     -2.34864700     -0.02844100
C           6.43822200      1.45714100      0.18796100
H           4.40871800      0.79140200     -0.12020300
C           7.74192200      1.02659100      0.30212400
H           6.18216700      2.50901900      0.25282100
C           9.96792600      0.83218600      0.36528700
H          10.67971800      0.94448600      1.18462400
H          10.44611000      1.00215900     -0.60798900
O           8.88752700      1.75829500      0.53866500
O           9.41398500     -0.49482500      0.39490200
N          -1.19180200      1.68126100     -0.53884600
