%chk=/home/zxwei/cal/chk/trans.chk
%mem=16GB
%nprocshared=16
#opt=(ts,calcfc,noeigen,maxstep=10)	scrf=(solvent=tetrahydrofuran)	nosymm	UM062X	def2SVP	guess=(mix,always)	fre

Title Card Required

0 1
C          -0.63327800     -1.17425900     -0.36261800
C          -0.27336700     -3.55647700     -1.11906400
C           1.10055200     -3.05111100     -1.55181200
C           1.63671600     -2.02405400     -0.55489000
C          -1.72990400     -0.47373300      0.12389600
C          -2.80445500     -1.39511300      0.03974900
H          -0.18703200     -4.25031200     -0.27540600
H           1.79015900     -3.89734700     -1.61563200
H           1.73765300     -2.46376100      0.44535300
H          -1.76276200      0.53293600      0.50495100
H          -0.79537000     -4.06774200     -1.93081400
H           1.04116400     -2.59021600     -2.54365500
H           2.61019600     -1.64929600     -0.86024500
N          -2.40639500     -2.58362700     -0.44822600
C          -4.15685000     -1.16396600      0.40752100
C          -5.30314100     -0.93842900      0.73033900
C          -6.70487200     -0.66378900      1.11053500
C          -7.62430000     -1.78982700      0.61821000
H          -7.54155300     -1.92129000     -0.46429000
H          -7.33685600     -2.72477900      1.10601200
H          -8.65897100     -1.54995500      0.87745900
O          -6.83957600     -0.58671100      2.52641400
H          -6.74480500      0.36041400      2.74931400
C          -7.09645900      0.68925200      0.52069500
S          -7.39891600      0.97619600     -1.17574100
C          -7.49922700      2.86824000      0.52957600
C          -7.65714700      2.65510900     -0.80786000
H          -7.60784100      3.82431500      1.02689300
H          -7.91227100      3.36465700     -1.58222200
N          -7.17900800      1.74989300      1.27254900
C           1.20343400      0.42467700     -0.56462300
N           2.51540300      0.56689100     -0.31893600
C           0.39951800      1.53146700     -0.89462600
C           3.02403900      1.80249300     -0.39324600
C           1.04408400      2.76012300     -0.93147700
H          -0.64468600      1.44016100     -1.15225700
N           2.34510800      2.93616700     -0.67874100
H           0.48244200      3.65595200     -1.18931100
N           0.71804600     -0.87164600     -0.49814300
N           4.36146700      2.00149800     -0.16385100
H           4.62837500      2.96881800     -0.29222300
C           5.40419800      1.11174600      0.14179500
C           6.71419200      1.64773900      0.05228700
C           5.21114100     -0.21978900      0.53632400
C           7.76287500      0.81175400      0.36114900
H           6.88403500      2.67565700     -0.25053400
C           6.30579000     -1.05067100      0.84133800
H           4.20728400     -0.60804600      0.60652600
C           7.57110400     -0.51378000      0.74526500
H           6.14954900     -2.07888500      1.14872600
C           9.77098800     -0.15000600      0.57386000
H          10.20047900     -0.48621300     -0.37857800
H          10.54028900     -0.03331200      1.33895100
O           8.79076800     -1.09608900      1.02083100
O           9.10386200      1.10857000      0.37415100
N          -1.08762900     -2.42098100     -0.69926300
