%chk=/home/zxwei/cal/chk/trans.chk
%mem=16GB
%nprocshared=16
#opt=(ts,calcfc,noeigen,maxstep=10)	scrf=(solvent=tetrahydrofuran)	nosymm	UM062X	def2SVP	guess=(mix,always)	fre

Title Card Required

0 1
C           3.12168300      1.15595000      0.56730400
C           1.74962500      0.86956800      0.68452200
C           0.79581100      1.85027900      0.42365500
C           1.20021900      3.16032800      0.05994200
C           2.56823200      3.44207300     -0.01917700
C           3.52172600      2.45725300      0.22170600
H           1.43922300     -0.11183000      1.02187700
H           2.89343000      4.43970800     -0.29144700
H           4.57802500      2.68933700      0.13885300
C           0.55408100      5.52954000      0.05239500
C          -0.56949000      3.97186000     -1.41130700
C          -0.72022800      6.36754700      0.07128100
H           1.21560000      5.90344900     -0.74712900
H           1.07917800      5.62583700      1.00729900
C          -1.80402800      4.86297700     -1.36379900
H           0.05968700      4.25233700     -2.27185400
H          -0.86734000      2.92837900     -1.53395000
H          -0.47776200      7.42911200      0.16734800
H          -1.34518000      6.06400200      0.92565700
H          -2.33718000      4.82761400     -2.31750700
H          -2.47906100      4.51447500     -0.56584100
N           0.18897200      4.12678400     -0.15407900
O          -1.45139400      6.22497800     -1.14283600
N          -0.57782700      1.63431300      0.60769700
H          -1.10375300      2.46178500      0.87353500
C          -1.34101400      0.55051300      0.27359800
N          -2.63585100      0.65111300      0.61587100
C          -0.85021200     -0.58647300     -0.40807200
C          -3.42991600     -0.38304500      0.29721500
C          -1.77426600     -1.57675100     -0.67493300
H           0.17696000     -0.67183200     -0.73166800
N          -3.07257700     -1.51309000     -0.32765000
H          -1.46962900     -2.47794900     -1.20238100
N          -4.74376500     -0.20213800      0.68166600
H          -4.92340900      0.67825300      1.14883900
C          -5.87304100     -0.99628900      0.53948200
C          -5.87539700     -2.26083500     -0.07666200
N          -6.97885000     -0.42890900      1.05623200
C          -7.09174200     -2.92331500     -0.13746000
H          -4.96240100     -2.67551000     -0.47555700
C          -8.12620200     -1.10805100      0.97327900
C          -8.25582300     -2.36524600      0.38706800
H          -8.99938500     -0.62021800      1.40084500
H          -9.20915100     -2.87659500      0.34375000
Cl         -7.15784100     -4.50681100     -0.89668100
C           4.08723200      0.13963500      0.83062900
C           4.90597600     -0.72569600      1.05762200
C           5.89621500     -1.79124800      1.32056100
C           5.29382700     -2.87303900      2.22702200
H           4.38706100     -3.29589200      1.78526800
H           6.02879400     -3.66800100      2.37952600
H           5.03672800     -2.42819700      3.19175800
O           7.04167900     -1.26365100      1.98171600
H           7.67674700     -1.04175100      1.27246800
C           6.34298900     -2.36126400     -0.02410100
S           5.36224300     -3.39919400     -1.03089200
C           7.67830700     -2.63388900     -1.77144000
C           6.63748100     -3.39643500     -2.21207100
H           8.60226300     -2.46639000     -2.31133400
H           6.54710500     -3.95256100     -3.13442900
N           7.50079700     -2.04963800     -0.53354700
