%chk=/home/zxwei/cal/chk/trans.chk
%mem=16GB
%nprocshared=16
#opt=(ts,calcfc,noeigen,maxstep=10)	scrf=(solvent=tetrahydrofuran)	nosymm	UM062X	def2SVP	guess=(mix,always)	fre

Title Card Required

0 1
C          -3.08812800      0.99696400     -0.55710700
C          -1.74923700      0.69019200     -0.25357600
C          -0.81635100      1.70624900     -0.06055800
C          -1.21463800      3.06537800     -0.14466300
C          -2.55651800      3.35727100     -0.40832000
C          -3.48551900      2.34254400     -0.62080700
H          -1.45826000     -0.34551300     -0.12893600
H          -2.87695100      4.39117000     -0.46856000
H          -4.51869400      2.58676200     -0.84309000
C           0.73713500      4.23458200     -1.01392800
C          -0.68701000      5.35084200      0.58684600
C           1.90304100      5.08379700     -0.52461900
H           0.24807200      4.72902700     -1.86911600
H           1.10051200      3.25970000     -1.34670000
C           0.52615100      6.15550700      1.04250800
H          -1.22222700      5.92262900     -0.18978400
H          -1.36794400      5.19059200      1.42801200
H           2.58897400      5.30233900     -1.34728700
H           2.45137100      4.53831300      0.26010900
H           0.22197000      7.15390500      1.36750600
H           1.01425100      5.63815000      1.88319700
N          -0.22730300      4.05289900      0.08922300
O           1.45427000      6.33885300     -0.02235500
N           0.50827300      1.45853100      0.32476100
H           0.93029100      2.20155900      0.87453600
C           1.37343900      0.48250900     -0.08434100
N           2.56737600      0.50224600      0.53085300
C           1.08604100     -0.46453000     -1.09351900
C           3.45902800     -0.42800200      0.15580900
C           2.09253100     -1.36432800     -1.38255200
H           0.15077400     -0.47258100     -1.63402900
N           3.29013600     -1.38204500     -0.76967700
H           1.94443400     -2.11789700     -2.15283200
N           4.65856100     -0.33987300      0.83407100
H           4.69684200      0.40738300      1.51650400
C           5.82842400     -1.08256400      0.75764300
C           6.01699900     -2.17009200     -0.11437800
N           6.77581700     -0.65289400      1.61178700
C           7.24889600     -2.80411500     -0.06397800
H           5.22659000     -2.47859800     -0.78123800
C           7.94577900     -1.29751500      1.62242700
C           8.25197900     -2.38562900      0.80806800
H           8.68805400     -0.92410400      2.32445300
H           9.21622900     -2.87589600      0.85346800
Cl          7.54404000     -4.16951800     -1.13021200
C          -4.03097700     -0.05333500     -0.76376300
C          -4.82650500     -0.95154400     -0.94003100
C          -5.80554600     -2.04171200     -1.13548200
C          -6.99569800     -1.55512600     -1.97313000
H          -6.63964800     -1.26388600     -2.96467800
H          -7.72249500     -2.36575600     -2.07351900
H          -7.47729100     -0.69063900     -1.50744500
O          -5.21080000     -3.13564800     -1.82661900
H          -4.88731000     -3.74208600     -1.13143300
C          -6.24428200     -2.53190500      0.24301700
S          -7.30415000     -1.64713500      1.31357200
C          -6.27847200     -3.87617300      2.00432600
C          -7.10665700     -2.90915500      2.49225300
H          -5.99058700     -4.77687500      2.53262300
H          -7.60929100     -2.86573700      3.44810800
N          -5.79302400     -3.65205000      0.73176700
